50 62
   1   -1   -1   21   46   -1   19   -1    6   -1   -1   -1   10   11    5   38   -1   38   -1    2   51   13   -1    4   33   -1   -1   22    5   23   -1   -1   10   34   30   -1   12   37   -1   34   -1   20   -1   13   38   60   33   25   -1   -1 
   0    1   -1   30   -1   43   40   37   -1   -1   22   47   -1   -1   -1   -1   -1   13   14   -1   -1    6   55    0   53   -1   -1   59   21   59   -1   -1   -1   16   -1   14   -1   -1   -1   -1   36   -1   34   26   -1   -1   -1   -1   21   -1 
   0    0    1   34   10   36   -1    3   -1   -1   20   49   -1   -1   -1   50   44   -1   -1   43   14   -1   18   -1   -1   -1   57   -1   35   -1   29   -1   58   -1   -1   -1   -1   10   34   -1   36   31   -1   -1   49   -1   -1   -1   -1   -1 
   0    0    0    1   61   -1   -1   13   40   14   36   -1   -1   -1   26   18   -1   21   50   -1   18   12   -1   -1   48   -1   -1   45   -1   -1   -1   49   -1   -1   -1   -1   41   19   -1   -1   -1   -1   32   10   29   50   -1   -1   36   14 
   0    0    0    0    1   -1   12   -1   40   -1   41   -1   -1   -1   -1   14   -1   52   28   -1   20   -1   16    4   48   22   42   15   -1   -1   -1   42    9   -1   -1   35   -1   13   52   14   -1   -1   47   45   -1   -1   42   -1   -1   39 
   0    0    0    0    0    1   -1   -1   -1   -1   -1   -1   -1   -1   11   -1   -1   -1   13   -1   -1   -1   -1   -1   -1   -1   -1   49   -1   13   39   44   36   -1   -1   -1   13    1   41   -1   -1   22   -1   -1   -1   -1   -1   -1   21   -1 
   0    0    0    0    0    0    1   53   49   36   14   -1   44   45   -1   30   -1   -1   -1   -1   -1   -1   -1   -1   -1   40   -1   -1   23   -1   10   24   -1   41   -1   32   46   -1   61    8   36   -1   39   -1   -1   13   43   -1   54   -1 
   0    0    0    0    0    0    0    1   -1   -1   -1    6   -1   -1   -1   -1   -1   61   -1   15    3   -1   -1   -1   37   56   -1   31   -1   -1   26   50   20   27   -1   -1   -1   52   33   -1    1   43   -1   11   61   23   -1   38   -1   49 
   0    0    0    0    0    0    0    0    1   -1   12    4   22   -1   15   11   14   -1   -1   -1    0   50   -1   -1   -1   -1    5   34    4   11   53   24   23   -1   -1   -1   52   58   -1   38   17   -1   -1   -1   44   13   -1    1   34   -1 
   0    0    0    0    0    0    0    0    0    1   -1   -1   -1   -1   14   16   -1   -1   -1   18   -1   -1   -1   36   58   -1   -1   57   -1   50   -1   -1   -1   47   23   13   -1   52   -1   33   -1   37   -1   24   -1   -1   -1   -1   -1   -1 
   0    0    0    0    0    0    0    0    0    0    1   53   23   31   24   -1   -1   29   53   39   -1   -1   -1   21   -1   -1   61   47   -1   -1   20   20   -1   -1   20   -1    2   -1   58   26   -1   -1   -1   26   23   41   -1   -1   -1   -1 
   0    0    0    0    0    0    0    0    0    0    0    1   59   34   -1    9   -1   21   36   57   -1   38   10    7   11    0   -1   -1   -1   -1   -1    3   -1   -1   -1   50   -1   -1    0   49   28    8   -1   29   49   -1   -1   -1   -1   -1 
   0    0    0    0    0    0    0    0    0    0    0    0    1   59   -1    0   -1   14   -1   58   30   -1   -1   -1   59   -1   -1   31   49   60   -1   -1   -1   -1   60    3   33   15   -1   -1   -1   -1   -1   -1   -1   -1   13   17   14   -1 
   0    0    0    0    0    0    0    0    0    0    0    0    0    1    6   40   53   59   59   -1   37   17   -1   -1   38   37   -1   46   -1   -1   49   -1   46   -1   -1   11   -1   -1   -1   33   -1   60   28   14   -1   51   57   33   45   55 
   0    0    0    0    0    0    0    0    0    0    0    0    0    0    1   -1   -1   33   -1   32    4   -1   61   17   -1   13   26   44   -1   -1   -1   -1   37   -1   49   -1   14   -1   48   -1    5   24   -1   -1   -1   28   -1   -1   -1   -1 
   0    0    0    0    0    0    0    0    0    0    0    0    0    0    0    1   -1   -1   -1    4   -1    3   -1   31   39   -1   -1   59   42   25   -1   -1   12   -1   -1   34   -1   -1   -1   -1   55   -1   -1   -1   -1   13   -1   40   25   30 
   0    0    0    0    0    0    0    0    0    0    0    0    0    0    0    0    1   15   -1   36   -1   55   -1   -1    5   41   -1   -1   32   -1   -1   -1    5   24    2   -1   -1   23   29   -1   -1   -1   -1   -1   -1   46    2   -1   58   -1 
   0    0    0    0    0    0    0    0    0    0    0    0    0    0    0    0    0    1   -1   49   -1   21   -1   12   -1   -1   24   59   -1   -1   -1   -1   50   -1   -1   -1   -1   57   58   31   -1   33   32   24   28   -1   -1   -1    7   46 
   0    0    0    0    0    0    0    0    0    0    0    0    0    0    0    0    0    0    1   35   -1   -1   40   11   -1   23   -1    8    4   33   -1   40   60   -1   -1   11   -1   21   -1   -1   33   -1   44   28   -1   -1   -1   -1    1    8 
   0    0    0    0    0    0    0    0    0    0    0    0    0    0    0    0    0    0    0    1   11   -1   60   33   43   33   -1   -1    3   -1   -1   33   19   -1   -1   -1   30   -1   44   17   -1   -1   10   45   -1   -1   -1   -1   37    4 
   0    0    0    0    0    0    0    0    0    0    0    0    0    0    0    0    0    0    0    0    0   55   61   -1   43   -1   14   -1   23   -1   -1    7   -1   57   15   15    5   -1   35   -1   12   10   -1   32   -1   -1   26   28   26   -1 
   0    0    0    0    0    0    0    0    0    0    0    0    0    0    0    0    0    0    0    0    0    0   -1   -1   -1   -1   -1   16   22   30   34   -1   54   33   -1   -1   22   55    6   -1   37   -1   -1   -1   -1   -1   -1   -1   -1   -1 
   0    0    0    0    0    0    0    0    0    0    0    0    0    0    0    0    0    0    0    0    0    0    0    3   12   29   -1   -1   -1   -1   -1   -1   54    4   55   41   -1   60   13   -1    7   23   -1   12   -1   36   57   46   27   -1 
   0    0    0    0    0    0    0    0    0    0    0    0    0    0    0    0    0    0    0    0    0    0    0    0   51    8   -1   51   10   22   -1   -1   16    5   27   -1   -1   -1   38   -1   -1   -1   28   -1   41   21   -1   13   28   39 
   0    0    0    0    0    0    0    0    0    0    0    0    0    0    0    0    0    0    0    0    0    0    0    0    0   11   28   25   -1   11   24   48   57   -1   -1   22   -1   32   57   -1   45   48   22   -1   12    7   -1   -1   59   -1 
   0    0    0    0    0    0    0    0    0    0    0    0    0    0    0    0    0    0    0    0    0    0    0    0    0    0   36   29   -1   -1   -1   -1   43   25   -1    2   -1   12   -1   46   -1   -1   -1   -1   -1   55   33   31   -1   32 
   0    0    0    0    0    0    0    0    0    0    0    0    0    0    0    0    0    0    0    0    0    0    0    0    0    0    0   -1   -1   49   -1   24    0   28   31   -1   15   -1   -1   -1    8   32   -1    5   -1   -1   12   20   23   30 
   0    0    0    0    0    0    0    0    0    0    0    0    0    0    0    0    0    0    0    0    0    0    0    0    0    0    0    0   21   16   -1   39   -1   -1   -1   11   -1   56   17   10   58   22   -1   32   -1   -1    1   57   29   -1 
   0    0    0    0    0    0    0    0    0    0    0    0    0    0    0    0    0    0    0    0    0    0    0    0    0    0    0    0    0   -1   -1   -1   -1   -1   28   -1   59   -1   51   38   -1   -1   35   46   28   17   -1   -1   50   -1 
   0    0    0    0    0    0    0    0    0    0    0    0    0    0    0    0    0    0    0    0    0    0    0    0    0    0    0    0    0    0   -1   47   48   21   59   -1   -1   61   23   -1   18   47   -1   -1    2   -1   -1   17   22   50 
   0    0    0    0    0    0    0    0    0    0    0    0    0    0    0    0    0    0    0    0    0    0    0    0    0    0    0    0    0    0    0   29    9   -1   -1   -1   25   -1   -1   53   55   44   -1   -1    4   -1   35   -1   40   -1 
   0    0    0    0    0    0    0    0    0    0    0    0    0    0    0    0    0    0    0    0    0    0    0    0    0    0    0    0    0    0    0    0   53   42   -1   -1   13   20   -1   -1   -1   -1   31    0   -1   -1   -1   34   29   -1 
   0    0    0    0    0    0    0    0    0    0    0    0    0    0    0    0    0    0    0    0    0    0    0    0    0    0    0    0    0    0    0    0    0   -1   -1   -1   -1   27   16   -1   -1   51   43   -1   12   -1   -1   -1   23   -1 
   0    0    0    0    0    0    0    0    0    0    0    0    0    0    0    0    0    0    0    0    0    0    0    0    0    0    0    0    0    0    0    0    0    0   19    8   -1   -1   -1   -1   36   -1   -1   44   -1    2   -1   28   27   14 
   0    0    0    0    0    0    0    0    0    0    0    0    0    0    0    0    0    0    0    0    0    0    0    0    0    0    0    0    0    0    0    0    0    0    0    1   24   -1   19   17   57   -1   -1   -1   -1   19   -1   51   -1   -1 
   0    0    0    0    0    0    0    0    0    0    0    0    0    0    0    0    0    0    0    0    0    0    0    0    0    0    0    0    0    0    0    0    0    0    0    0   -1   31   -1   -1   -1   -1   56   32   48   44   -1   41   -1   -1 
   0    0    0    0    0    0    0    0    0    0    0    0    0    0    0    0    0    0    0    0    0    0    0    0    0    0    0    0    0    0    0    0    0    0    0    0    0   -1   10    5   -1   27   35   29    0   -1   -1   -1   -1   -1 
   0    0    0    0    0    0    0    0    0    0    0    0    0    0    0    0    0    0    0    0    0    0    0    0    0    0    0    0    0    0    0    0    0    0    0    0    0    0   -1   -1   -1   -1   18   54   61   14   37   -1   -1   -1 
   0    0    0    0    0    0    0    0    0    0    0    0    0    0    0    0    0    0    0    0    0    0    0    0    0    0    0    0    0    0    0    0    0    0    0    0    0    0    0   -1   59    6   -1   39   22   -1   29   -1   59   45 
   0    0    0    0    0    0    0    0    0    0    0    0    0    0    0    0    0    0    0    0    0    0    0    0    0    0    0    0    0    0    0    0    0    0    0    0    0    0    0    0   30   -1   37    5   -1   -1   57   20    3   -1 
   0    0    0    0    0    0    0    0    0    0    0    0    0    0    0    0    0    0    0    0    0    0    0    0    0    0    0    0    0    0    0    0    0    0    0    0    0    0    0    0    0   12   13   55   28   -1   -1   -1   -1   36 
   0    0    0    0    0    0    0    0    0    0    0    0    0    0    0    0    0    0    0    0    0    0    0    0    0    0    0    0    0    0    0    0    0    0    0    0    0    0    0    0    0    0   -1   -1   -1   47   -1    3   33   47 
   0    0    0    0    0    0    0    0    0    0    0    0    0    0    0    0    0    0    0    0    0    0    0    0    0    0    0    0    0    0    0    0    0    0    0    0    0    0    0    0    0    0    0   -1   -1   42   38   -1    8   42 
   0    0    0    0    0    0    0    0    0    0    0    0    0    0    0    0    0    0    0    0    0    0    0    0    0    0    0    0    0    0    0    0    0    0    0    0    0    0    0    0    0    0    0    0   -1   -1   53   -1   -1   50 
   0    0    0    0    0    0    0    0    0    0    0    0    0    0    0    0    0    0    0    0    0    0    0    0    0    0    0    0    0    0    0    0    0    0    0    0    0    0    0    0    0    0    0    0    0   -1   18   -1   13   -1 
   0    0    0    0    0    0    0    0    0    0    0    0    0    0    0    0    0    0    0    0    0    0    0    0    0    0    0    0    0    0    0    0    0    0    0    0    0    0    0    0    0    0    0    0    0    0   54    7   -1   -1 
   0    0    0    0    0    0    0    0    0    0    0    0    0    0    0    0    0    0    0    0    0    0    0    0    0    0    0    0    0    0    0    0    0    0    0    0    0    0    0    0    0    0    0    0    0    0    0   -1   -1   -1 
   0    0    0    0    0    0    0    0    0    0    0    0    0    0    0    0    0    0    0    0    0    0    0    0    0    0    0    0    0    0    0    0    0    0    0    0    0    0    0    0    0    0    0    0    0    0    0    0    4   -1 
   0    0    0    0    0    0    0    0    0    0    0    0    0    0    0    0    0    0    0    0    0    0    0    0    0    0    0    0    0    0    0    0    0    0    0    0    0    0    0    0    0    0    0    0    0    0    0    0    0   25 
   0    0    0    0    0    0    0    0    0    0    0    0    0    0    0    0    0    0    0    0    0    0    0    0    0    0    0    0    0    0    0    0    0    0    0    0    0    0    0    0    0    0    0    0    0    0    0    0    0    0 
